inputs/410.in
10
0 77 89 67 87 15 59 92 91 3 
77 0 96 52 47 2 26 21 85 63 
89 96 0 58 48 11 24 76 15 29 
67 52 58 0 88 42 25 98 59 93 
87 47 48 88 0 94 36 58 72 3 
15 2 11 42 94 0 51 31 65 22 
59 26 24 25 36 51 0 50 85 34 
92 21 76 98 58 31 50 0 30 0 
91 85 15 59 72 65 85 30 0 69 
3 63 29 93 3 22 34 0 69 0 
RRBRBBRBBR
