output/410.out
5 10 1 6 2 8 9 3 7 4 
